proyfinal/src/viki/013/experimentInOfficeAgust.take6.output/32a2db85-1bd2-4f65-8047-c32004a4dfc5.als.out
Reading from standard input... Use '--help' for help.
============================[ Problem Statistics ]=============================
|                                                                             |
|  Number of variables:         87638                                         |
|  Number of clauses:          161767                                         |
|  Parse time:                   0.04 s                                       |
|                                                                             |
============================[ Search Statistics ]==============================
| Conflicts |          ORIGINAL         |          LEARNT          | Progress |
|           |    Vars  Clauses Literals |    Limit  Clauses Lit/Cl |          |
===============================================================================
|       100 |   62266   104830   261879 |    38437      100     10 | 28.951 % |
|       250 |   62266   104830   261879 |    42281      250     17 | 28.951 % |
|       475 |   62265   104786   261789 |    46509      473     42 | 28.952 % |
|       812 |   62265   104786   261789 |    51160      810     48 | 28.952 % |
|      1318 |   62265   104786   261789 |    56276     1316     70 | 28.952 % |
|      2077 |   62265   104786   261789 |    61904     2075     76 | 28.952 % |
|      3216 |   48479    66113   166613 |    68094     2674     64 | 44.683 % |
|      4924 |   47968    65774   165791 |    74904     4377     60 | 45.266 % |
|      7486 |   47749    63310   159843 |    82394     6094     55 | 45.516 % |
===============================================================================
restarts              : 46
conflicts             : 10591          (7583 /sec)
decisions             : 34729          (0.00 % random) (24866 /sec)
propagations          : 16439663       (11770698 /sec)
conflict literals     : 578915         (46.30 % deleted)
Memory used           : 29.48 MB
CPU time              : 1.39666 s

UNSATISFIABLE
